benchmarks/VRPTW/TSPTW/solution/n100w40.004.txt.solution
1 76 92 85 24 71 79 6 17 73 38 60 58 51 84 54 41 61 13 21 80 3 22 18 47 42 4 63 32 98 5 46 40 8 50 14 10 91 39 64 26 11 20 56 86 94 90 44 88 70 75 66 33 100 49 37 7 43 95 27 57 89 59 69 45 48 87 55 62 53 72 74 34 16 19 68 23 67 9 30 77 81 36 99 82 65 29 97 93 52 78 35 83 15 25 31 12 2 96 101 28 
651
